benchmarks_CP/INST_64x64/50/inst64x64_50_65.dzn
S=8;
start=[|
-1,	-1,	48,	-1,	-1,	-1,	12,	-1,	46,	-1,	16,	-1,	-1,	-1,	-1,	26,	41,	10,	-1,	58,	-1,	-1,	45,	-1,	-1,	-1,	33,	2,	6,	-1,	32,	1,	-1,	40,	-1,	37,	-1,	-1,	63,	-1,	-1,	52,	49,	-1,	5,	-1,	-1,	-1,	-1,	-1,	-1,	-1,	3,	18,	-1,	-1,	-1,	14,	43,	36,	-1,	4,	-1,	-1|
36,	-1,	-1,	-1,	-1,	38,	2,	-1,	-1,	-1,	-1,	-1,	3,	-1,	40,	-1,	33,	-1,	31,	11,	-1,	-1,	-1,	63,	-1,	23,	-1,	-1,	-1,	27,	-1,	-1,	18,	47,	-1,	4,	-1,	26,	-1,	60,	28,	-1,	62,	-1,	-1,	-1,	-1,	29,	52,	10,	61,	19,	46,	39,	-1,	64,	42,	-1,	34,	-1,	49,	-1,	37,	-1|
-1,	39,	62,	10,	28,	40,	-1,	-1,	-1,	-1,	-1,	-1,	-1,	55,	-1,	-1,	-1,	2,	-1,	43,	-1,	57,	1,	-1,	9,	12,	37,	-1,	-1,	26,	-1,	16,	-1,	-1,	-1,	3,	30,	-1,	59,	-1,	-1,	46,	27,	-1,	-1,	-1,	44,	-1,	45,	-1,	54,	-1,	-1,	-1,	36,	-1,	52,	-1,	-1,	-1,	51,	11,	-1,	31|
59,	-1,	34,	-1,	-1,	29,	-1,	-1,	5,	-1,	-1,	50,	-1,	-1,	19,	-1,	-1,	56,	48,	-1,	17,	38,	16,	55,	52,	46,	-1,	43,	63,	-1,	3,	-1,	-1,	-1,	-1,	61,	49,	-1,	23,	-1,	-1,	57,	-1,	36,	12,	-1,	31,	37,	-1,	-1,	6,	-1,	51,	-1,	47,	-1,	44,	-1,	-1,	-1,	64,	45,	28,	-1|
23,	-1,	-1,	60,	16,	31,	4,	24,	-1,	-1,	-1,	36,	-1,	63,	21,	37,	30,	50,	47,	-1,	-1,	-1,	-1,	22,	-1,	57,	-1,	-1,	-1,	-1,	-1,	58,	19,	5,	52,	7,	13,	-1,	34,	43,	-1,	-1,	-1,	-1,	14,	-1,	18,	-1,	-1,	40,	62,	-1,	-1,	48,	44,	15,	-1,	-1,	-1,	-1,	46,	-1,	-1,	10|
-1,	46,	-1,	-1,	6,	-1,	-1,	58,	39,	-1,	-1,	-1,	28,	-1,	-1,	-1,	-1,	37,	52,	-1,	-1,	-1,	29,	-1,	-1,	-1,	-1,	47,	40,	7,	13,	44,	45,	62,	-1,	36,	12,	-1,	-1,	20,	61,	-1,	48,	30,	51,	63,	9,	-1,	-1,	-1,	5,	-1,	-1,	-1,	8,	-1,	-1,	24,	-1,	-1,	16,	18,	33,	-1|
33,	45,	49,	43,	19,	-1,	-1,	-1,	56,	-1,	47,	-1,	-1,	-1,	12,	-1,	36,	-1,	-1,	6,	8,	9,	-1,	59,	15,	64,	-1,	-1,	50,	-1,	30,	-1,	-1,	-1,	44,	-1,	-1,	-1,	16,	-1,	32,	40,	4,	-1,	54,	3,	-1,	-1,	37,	-1,	25,	31,	-1,	-1,	41,	-1,	63,	-1,	-1,	-1,	-1,	-1,	13,	35|
54,	-1,	37,	42,	5,	-1,	-1,	-1,	-1,	30,	-1,	23,	-1,	-1,	-1,	-1,	25,	-1,	-1,	-1,	-1,	-1,	-1,	-1,	-1,	-1,	31,	28,	24,	10,	-1,	-1,	50,	-1,	-1,	2,	57,	-1,	-1,	-1,	53,	59,	22,	58,	-1,	13,	19,	-1,	7,	34,	-1,	-1,	11,	26,	49,	9,	-1,	40,	48,	3,	12,	-1,	21,	-1|
-1,	-1,	-1,	64,	-1,	-1,	26,	50,	7,	-1,	-1,	-1,	11,	-1,	3,	-1,	-1,	59,	-1,	-1,	30,	58,	23,	47,	8,	-1,	-1,	-1,	-1,	-1,	-1,	34,	35,	-1,	-1,	-1,	-1,	1,	-1,	-1,	-1,	-1,	60,	-1,	61,	-1,	29,	2,	44,	-1,	-1,	36,	57,	21,	45,	-1,	55,	-1,	16,	42,	-1,	-1,	-1,	43|
37,	17,	25,	2,	-1,	42,	48,	9,	-1,	-1,	15,	-1,	5,	34,	-1,	40,	-1,	-1,	-1,	64,	45,	26,	38,	14,	61,	-1,	16,	-1,	-1,	-1,	-1,	-1,	39,	-1,	-1,	-1,	58,	-1,	-1,	-1,	-1,	-1,	-1,	-1,	-1,	-1,	3,	-1,	60,	29,	-1,	-1,	31,	41,	43,	12,	59,	20,	36,	-1,	-1,	57,	50,	21|
19,	14,	20,	-1,	55,	-1,	-1,	62,	-1,	56,	-1,	53,	-1,	-1,	-1,	-1,	-1,	8,	-1,	36,	42,	1,	-1,	-1,	23,	-1,	17,	18,	41,	-1,	24,	2,	-1,	-1,	-1,	-1,	9,	7,	-1,	-1,	-1,	47,	-1,	-1,	38,	35,	21,	40,	22,	-1,	-1,	11,	13,	-1,	-1,	34,	-1,	-1,	29,	-1,	-1,	-1,	26,	-1|
-1,	7,	53,	56,	-1,	-1,	33,	16,	14,	-1,	-1,	31,	-1,	54,	62,	60,	46,	-1,	-1,	-1,	9,	22,	-1,	-1,	-1,	44,	-1,	-1,	-1,	40,	1,	-1,	12,	-1,	-1,	17,	-1,	55,	-1,	-1,	25,	28,	-1,	-1,	15,	-1,	-1,	-1,	27,	-1,	51,	3,	58,	-1,	2,	59,	-1,	32,	23,	45,	-1,	-1,	-1,	-1|
18,	-1,	4,	3,	21,	-1,	-1,	-1,	-1,	-1,	13,	46,	17,	29,	-1,	59,	-1,	32,	-1,	-1,	-1,	51,	50,	-1,	42,	37,	-1,	-1,	-1,	53,	57,	15,	-1,	-1,	-1,	-1,	-1,	-1,	48,	54,	-1,	31,	58,	-1,	49,	5,	-1,	-1,	-1,	-1,	-1,	-1,	-1,	24,	9,	35,	-1,	-1,	44,	64,	-1,	-1,	10,	19|
-1,	-1,	-1,	-1,	-1,	-1,	43,	-1,	26,	52,	10,	-1,	9,	39,	-1,	22,	-1,	63,	-1,	53,	-1,	-1,	-1,	29,	-1,	-1,	59,	58,	-1,	-1,	12,	54,	5,	-1,	64,	-1,	-1,	-1,	13,	-1,	11,	8,	16,	37,	44,	56,	-1,	-1,	17,	55,	50,	-1,	19,	42,	-1,	-1,	30,	25,	33,	-1,	-1,	-1,	14,	51|
-1,	61,	-1,	-1,	59,	-1,	5,	47,	58,	44,	36,	-1,	-1,	-1,	57,	41,	-1,	11,	20,	-1,	-1,	33,	-1,	-1,	-1,	21,	29,	45,	60,	-1,	51,	-1,	-1,	42,	63,	26,	2,	-1,	43,	-1,	-1,	62,	30,	-1,	-1,	1,	-1,	9,	-1,	7,	46,	-1,	8,	-1,	-1,	-1,	28,	-1,	12,	56,	31,	17,	-1,	-1|
-1,	60,	-1,	-1,	-1,	49,	58,	36,	21,	-1,	8,	55,	61,	51,	48,	42,	-1,	12,	-1,	-1,	44,	52,	-1,	-1,	26,	43,	-1,	-1,	-1,	-1,	-1,	-1,	20,	29,	-1,	28,	32,	40,	-1,	46,	-1,	-1,	24,	-1,	45,	-1,	-1,	-1,	-1,	25,	-1,	-1,	56,	-1,	-1,	-1,	41,	-1,	-1,	-1,	34,	63,	35,	-1|
-1,	-1,	-1,	-1,	-1,	-1,	-1,	11,	-1,	-1,	45,	-1,	59,	14,	64,	27,	-1,	-1,	9,	-1,	25,	13,	-1,	-1,	22,	30,	2,	15,	-1,	43,	34,	-1,	62,	-1,	47,	44,	56,	-1,	6,	-1,	-1,	-1,	17,	-1,	-1,	18,	-1,	-1,	-1,	-1,	-1,	35,	-1,	52,	-1,	-1,	19,	-1,	-1,	-1,	-1,	12,	-1,	-1|
45,	-1,	-1,	7,	10,	24,	-1,	-1,	-1,	-1,	35,	48,	-1,	-1,	-1,	-1,	-1,	62,	38,	33,	4,	-1,	19,	31,	46,	-1,	47,	-1,	17,	36,	-1,	18,	59,	28,	41,	-1,	29,	39,	58,	-1,	42,	3,	-1,	61,	8,	37,	-1,	-1,	6,	-1,	-1,	-1,	16,	-1,	20,	40,	-1,	-1,	-1,	50,	-1,	-1,	-1,	-1|
-1,	-1,	6,	-1,	-1,	22,	-1,	44,	23,	-1,	-1,	-1,	40,	5,	61,	21,	-1,	1,	18,	2,	46,	56,	17,	-1,	-1,	-1,	24,	53,	42,	-1,	-1,	14,	8,	63,	-1,	-1,	-1,	-1,	51,	-1,	-1,	-1,	-1,	-1,	-1,	58,	25,	7,	-1,	-1,	48,	-1,	-1,	-1,	12,	3,	-1,	28,	-1,	13,	-1,	34,	32,	-1|
-1,	19,	-1,	-1,	56,	-1,	-1,	-1,	3,	46,	-1,	-1,	53,	62,	-1,	54,	40,	-1,	-1,	-1,	-1,	-1,	-1,	-1,	-1,	-1,	58,	-1,	-1,	-1,	-1,	-1,	25,	1,	-1,	-1,	-1,	33,	-1,	-1,	-1,	10,	15,	-1,	2,	-1,	35,	39,	8,	-1,	32,	38,	60,	45,	14,	-1,	-1,	-1,	21,	-1,	18,	41,	-1,	-1|
12,	35,	-1,	5,	-1,	54,	21,	61,	20,	36,	24,	-1,	6,	-1,	15,	-1,	-1,	64,	-1,	-1,	-1,	-1,	43,	50,	19,	-1,	26,	49,	-1,	55,	25,	7,	9,	60,	13,	53,	37,	46,	-1,	42,	-1,	30,	57,	38,	-1,	27,	4,	62,	-1,	-1,	-1,	1,	63,	23,	-1,	-1,	-1,	-1,	-1,	-1,	40,	39,	16,	14|
-1,	47,	-1,	-1,	-1,	-1,	37,	-1,	-1,	-1,	44,	18,	41,	16,	63,	-1,	-1,	6,	49,	-1,	34,	-1,	22,	58,	-1,	-1,	-1,	59,	-1,	38,	-1,	33,	2,	-1,	-1,	64,	40,	-1,	-1,	32,	-1,	-1,	-1,	-1,	28,	53,	-1,	-1,	-1,	-1,	-1,	17,	-1,	27,	19,	-1,	-1,	-1,	-1,	-1,	-1,	-1,	15,	11|
1,	55,	63,	-1,	-1,	-1,	-1,	14,	-1,	-1,	49,	-1,	-1,	-1,	-1,	-1,	27,	57,	-1,	-1,	-1,	53,	-1,	-1,	62,	51,	32,	40,	39,	-1,	35,	10,	-1,	23,	-1,	5,	24,	-1,	18,	-1,	50,	-1,	21,	-1,	-1,	-1,	60,	-1,	36,	-1,	11,	-1,	-1,	-1,	56,	-1,	6,	-1,	-1,	-1,	-1,	33,	8,	-1|
64,	-1,	-1,	-1,	29,	2,	50,	-1,	4,	39,	-1,	30,	51,	13,	32,	-1,	-1,	55,	8,	59,	-1,	7,	-1,	-1,	3,	-1,	-1,	6,	-1,	-1,	41,	12,	-1,	-1,	10,	34,	35,	27,	19,	-1,	1,	-1,	9,	11,	-1,	-1,	14,	-1,	-1,	-1,	-1,	58,	-1,	-1,	-1,	-1,	-1,	-1,	47,	-1,	23,	22,	44,	-1|
-1,	64,	41,	-1,	35,	55,	-1,	-1,	30,	-1,	23,	-1,	-1,	58,	45,	33,	-1,	-1,	-1,	60,	-1,	-1,	-1,	-1,	-1,	-1,	-1,	-1,	26,	50,	36,	-1,	46,	-1,	16,	57,	-1,	63,	-1,	56,	9,	22,	-1,	-1,	-1,	43,	-1,	-1,	14,	4,	28,	-1,	5,	62,	24,	-1,	32,	47,	51,	-1,	52,	20,	-1,	37|
-1,	-1,	-1,	52,	24,	43,	56,	54,	-1,	21,	11,	-1,	-1,	28,	50,	-1,	63,	16,	-1,	-1,	33,	-1,	-1,	9,	-1,	-1,	46,	30,	-1,	-1,	-1,	40,	14,	37,	-1,	-1,	-1,	-1,	35,	-1,	23,	-1,	-1,	-1,	62,	49,	26,	-1,	48,	59,	-1,	-1,	53,	29,	-1,	-1,	31,	13,	-1,	2,	36,	58,	-1,	1|
-1,	37,	-1,	-1,	44,	-1,	36,	59,	19,	-1,	64,	61,	34,	24,	4,	20,	-1,	45,	32,	-1,	-1,	-1,	25,	-1,	33,	49,	-1,	-1,	-1,	-1,	52,	43,	48,	6,	-1,	-1,	-1,	53,	-1,	62,	35,	-1,	-1,	-1,	29,	38,	-1,	57,	2,	9,	-1,	40,	27,	-1,	51,	31,	22,	16,	30,	10,	-1,	-1,	41,	55|
-1,	-1,	-1,	20,	-1,	4,	-1,	-1,	-1,	-1,	-1,	35,	47,	44,	-1,	32,	15,	-1,	11,	37,	-1,	39,	59,	41,	56,	22,	18,	-1,	-1,	-1,	-1,	45,	33,	64,	26,	-1,	-1,	-1,	25,	24,	-1,	-1,	-1,	2,	6,	-1,	5,	-1,	-1,	-1,	7,	-1,	1,	-1,	-1,	19,	46,	38,	-1,	-1,	-1,	-1,	62,	23|
31,	-1,	30,	-1,	46,	-1,	-1,	19,	16,	3,	-1,	8,	60,	-1,	37,	25,	-1,	36,	23,	18,	62,	29,	-1,	-1,	-1,	-1,	55,	5,	35,	-1,	38,	17,	-1,	15,	-1,	20,	44,	-1,	40,	-1,	-1,	-1,	-1,	-1,	-1,	4,	7,	59,	64,	-1,	43,	26,	-1,	-1,	13,	-1,	-1,	-1,	-1,	-1,	-1,	53,	57,	-1|
-1,	9,	18,	-1,	60,	50,	-1,	53,	-1,	27,	17,	7,	-1,	-1,	-1,	51,	22,	61,	46,	31,	43,	5,	-1,	20,	-1,	3,	6,	-1,	62,	-1,	37,	41,	-1,	58,	29,	21,	-1,	2,	-1,	-1,	44,	33,	47,	54,	-1,	14,	32,	-1,	35,	-1,	-1,	-1,	-1,	-1,	10,	-1,	40,	-1,	39,	-1,	-1,	-1,	-1,	-1|
-1,	16,	2,	23,	40,	-1,	-1,	28,	-1,	-1,	-1,	5,	-1,	56,	10,	-1,	-1,	53,	-1,	35,	-1,	-1,	-1,	51,	24,	32,	-1,	-1,	-1,	25,	7,	60,	-1,	-1,	-1,	30,	-1,	4,	-1,	41,	46,	37,	34,	45,	21,	31,	-1,	64,	11,	22,	-1,	12,	-1,	6,	54,	-1,	43,	-1,	19,	-1,	29,	-1,	-1,	33|
-1,	6,	33,	-1,	-1,	17,	45,	29,	48,	62,	59,	-1,	38,	-1,	-1,	46,	-1,	-1,	58,	-1,	-1,	47,	-1,	64,	12,	-1,	28,	-1,	-1,	-1,	-1,	-1,	-1,	8,	-1,	-1,	43,	-1,	1,	-1,	40,	-1,	-1,	-1,	16,	55,	53,	56,	-1,	63,	-1,	-1,	-1,	-1,	60,	-1,	4,	-1,	-1,	44,	-1,	61,	7,	-1|
35,	-1,	12,	-1,	62,	-1,	42,	15,	34,	-1,	-1,	-1,	33,	6,	-1,	-1,	52,	27,	22,	38,	-1,	-1,	41,	-1,	10,	45,	-1,	-1,	19,	-1,	-1,	-1,	-1,	43,	-1,	54,	-1,	14,	-1,	61,	18,	-1,	-1,	57,	-1,	59,	58,	-1,	-1,	28,	55,	-1,	-1,	-1,	-1,	60,	20,	-1,	-1,	29,	-1,	21,	53,	3|
2,	-1,	16,	45,	-1,	-1,	49,	17,	-1,	35,	-1,	64,	-1,	-1,	53,	-1,	21,	-1,	-1,	7,	14,	-1,	-1,	36,	28,	4,	-1,	-1,	-1,	-1,	56,	32,	10,	3,	-1,	60,	26,	-1,	42,	-1,	52,	-1,	41,	31,	-1,	25,	24,	8,	-1,	6,	33,	50,	-1,	51,	-1,	-1,	34,	-1,	55,	-1,	62,	-1,	30,	-1|
-1,	-1,	47,	6,	-1,	59,	14,	-1,	-1,	-1,	-1,	-1,	-1,	-1,	20,	-1,	-1,	-1,	35,	24,	-1,	-1,	-1,	4,	-1,	34,	-1,	-1,	-1,	37,	33,	-1,	28,	-1,	27,	38,	-1,	-1,	9,	-1,	55,	16,	-1,	39,	30,	19,	-1,	-1,	29,	-1,	-1,	-1,	-1,	11,	7,	45,	-1,	-1,	42,	-1,	-1,	49,	-1,	61|
-1,	57,	52,	-1,	-1,	-1,	34,	-1,	-1,	32,	-1,	-1,	12,	-1,	23,	-1,	64,	-1,	-1,	54,	-1,	19,	-1,	46,	-1,	-1,	-1,	-1,	-1,	-1,	-1,	50,	-1,	-1,	-1,	-1,	-1,	8,	-1,	-1,	29,	-1,	40,	48,	-1,	-1,	-1,	-1,	20,	-1,	-1,	9,	42,	-1,	-1,	41,	-1,	-1,	10,	11,	39,	-1,	-1,	-1|
-1,	38,	-1,	-1,	61,	64,	41,	56,	-1,	-1,	50,	-1,	18,	48,	29,	28,	57,	34,	-1,	39,	31,	-1,	-1,	44,	30,	-1,	-1,	36,	-1,	-1,	-1,	-1,	63,	20,	-1,	-1,	-1,	15,	12,	-1,	-1,	7,	-1,	-1,	46,	21,	42,	-1,	13,	-1,	26,	22,	-1,	4,	59,	-1,	-1,	-1,	-1,	43,	37,	16,	51,	27|
-1,	-1,	28,	24,	-1,	-1,	31,	-1,	15,	51,	-1,	1,	-1,	-1,	44,	7,	-1,	17,	10,	45,	-1,	23,	-1,	-1,	20,	29,	-1,	-1,	43,	-1,	40,	42,	-1,	16,	32,	56,	-1,	-1,	62,	39,	-1,	9,	35,	-1,	3,	50,	-1,	47,	49,	-1,	-1,	-1,	21,	19,	58,	-1,	25,	41,	6,	-1,	-1,	13,	64,	2|
48,	13,	-1,	40,	-1,	58,	-1,	-1,	42,	-1,	37,	-1,	43,	45,	-1,	-1,	50,	-1,	-1,	9,	-1,	60,	32,	-1,	57,	-1,	49,	61,	-1,	-1,	26,	21,	29,	35,	-1,	24,	-1,	52,	-1,	53,	-1,	-1,	-1,	5,	34,	20,	-1,	38,	-1,	46,	64,	-1,	30,	3,	15,	-1,	-1,	-1,	31,	8,	-1,	-1,	4,	36|
-1,	-1,	29,	-1,	-1,	10,	-1,	-1,	-1,	-1,	-1,	-1,	-1,	3,	17,	56,	-1,	-1,	6,	42,	20,	-1,	-1,	16,	54,	-1,	52,	-1,	-1,	-1,	-1,	-1,	-1,	-1,	40,	19,	64,	-1,	-1,	22,	-1,	45,	-1,	49,	-1,	23,	28,	51,	43,	12,	8,	39,	25,	-1,	-1,	61,	15,	-1,	58,	35,	32,	-1,	-1,	5|
43,	-1,	-1,	-1,	4,	-1,	6,	-1,	47,	37,	-1,	44,	45,	-1,	-1,	50,	19,	52,	56,	62,	-1,	11,	-1,	-1,	1,	38,	-1,	-1,	12,	-1,	-1,	-1,	57,	27,	-1,	29,	-1,	-1,	-1,	2,	-1,	-1,	14,	-1,	31,	28,	-1,	18,	5,	-1,	17,	-1,	32,	-1,	30,	63,	-1,	21,	-1,	-1,	-1,	-1,	36,	-1|
-1,	-1,	60,	41,	45,	16,	17,	51,	9,	63,	-1,	-1,	42,	-1,	38,	-1,	3,	18,	-1,	30,	-1,	-1,	10,	-1,	29,	54,	50,	8,	56,	6,	-1,	4,	43,	-1,	-1,	32,	52,	-1,	-1,	13,	-1,	25,	19,	-1,	-1,	47,	-1,	-1,	58,	11,	-1,	-1,	55,	59,	40,	-1,	-1,	57,	46,	-1,	-1,	-1,	-1,	34|
5,	33,	-1,	-1,	-1,	-1,	-1,	1,	13,	15,	52,	12,	-1,	4,	-1,	-1,	-1,	39,	-1,	61,	-1,	-1,	-1,	-1,	40,	41,	63,	9,	32,	58,	-1,	-1,	6,	18,	-1,	59,	20,	-1,	26,	-1,	17,	-1,	-1,	34,	24,	-1,	48,	53,	28,	-1,	42,	51,	22,	25,	29,	27,	3,	62,	-1,	37,	38,	19,	-1,	-1|
28,	48,	-1,	-1,	50,	47,	-1,	-1,	-1,	61,	-1,	22,	-1,	53,	-1,	2,	-1,	-1,	1,	-1,	13,	-1,	-1,	-1,	-1,	10,	27,	-1,	25,	-1,	-1,	20,	-1,	-1,	-1,	62,	31,	5,	17,	-1,	33,	-1,	-1,	-1,	9,	16,	52,	46,	-1,	3,	36,	-1,	-1,	35,	39,	26,	-1,	12,	-1,	6,	-1,	-1,	18,	15|
20,	59,	13,	-1,	37,	-1,	-1,	-1,	-1,	-1,	-1,	-1,	-1,	-1,	49,	17,	5,	-1,	-1,	-1,	-1,	15,	-1,	38,	39,	2,	-1,	-1,	-1,	30,	55,	28,	58,	-1,	-1,	33,	50,	56,	-1,	11,	-1,	-1,	-1,	29,	63,	62,	-1,	61,	-1,	21,	-1,	-1,	-1,	31,	-1,	47,	8,	4,	14,	-1,	9,	32,	-1,	-1|
8,	-1,	-1,	27,	-1,	56,	64,	-1,	-1,	57,	34,	-1,	30,	-1,	58,	-1,	-1,	-1,	53,	47,	-1,	-1,	20,	-1,	-1,	26,	44,	-1,	-1,	49,	-1,	-1,	38,	12,	-1,	-1,	-1,	-1,	-1,	63,	15,	2,	6,	1,	32,	60,	-1,	-1,	19,	-1,	-1,	-1,	-1,	10,	61,	24,	-1,	-1,	17,	52,	22,	43,	-1,	25|
34,	-1,	19,	-1,	52,	-1,	-1,	38,	-1,	-1,	56,	3,	-1,	41,	27,	-1,	-1,	29,	-1,	-1,	-1,	-1,	9,	33,	53,	-1,	-1,	-1,	36,	-1,	23,	31,	15,	-1,	-1,	-1,	21,	64,	-1,	1,	-1,	11,	59,	-1,	-1,	42,	-1,	-1,	46,	-1,	60,	-1,	2,	13,	16,	48,	-1,	44,	5,	49,	10,	40,	47,	58|
-1,	-1,	-1,	30,	32,	23,	-1,	-1,	-1,	31,	-1,	40,	62,	-1,	7,	-1,	51,	-1,	37,	25,	58,	16,	28,	-1,	-1,	33,	-1,	-1,	52,	-1,	59,	61,	55,	-1,	-1,	-1,	53,	-1,	-1,	47,	38,	-1,	-1,	3,	10,	-1,	13,	-1,	-1,	-1,	9,	43,	-1,	-1,	6,	57,	11,	-1,	-1,	-1,	50,	42,	-1,	56|
39,	23,	-1,	63,	20,	-1,	46,	48,	-1,	29,	27,	17,	36,	-1,	-1,	12,	60,	-1,	-1,	-1,	-1,	-1,	-1,	11,	5,	-1,	42,	-1,	-1,	-1,	-1,	37,	-1,	-1,	-1,	-1,	-1,	62,	-1,	-1,	64,	21,	26,	-1,	-1,	41,	-1,	33,	32,	-1,	-1,	-1,	10,	22,	-1,	-1,	-1,	-1,	52,	-1,	55,	14,	61,	9|
42,	-1,	36,	61,	34,	35,	25,	52,	-1,	11,	-1,	-1,	-1,	15,	41,	4,	-1,	5,	26,	-1,	22,	-1,	-1,	23,	-1,	62,	14,	-1,	44,	-1,	46,	49,	-1,	-1,	-1,	27,	-1,	-1,	45,	3,	56,	-1,	32,	59,	-1,	39,	-1,	-1,	51,	-1,	-1,	-1,	6,	-1,	-1,	-1,	-1,	37,	64,	-1,	47,	60,	20,	-1|
4,	24,	-1,	-1,	-1,	-1,	18,	-1,	-1,	60,	-1,	45,	63,	-1,	5,	61,	-1,	38,	36,	29,	2,	-1,	-1,	-1,	58,	28,	-1,	55,	23,	-1,	48,	-1,	-1,	26,	35,	46,	-1,	-1,	22,	14,	-1,	15,	37,	27,	7,	44,	-1,	-1,	-1,	19,	59,	34,	64,	30,	-1,	-1,	57,	-1,	-1,	-1,	-1,	3,	25,	54|
-1,	29,	64,	-1,	-1,	-1,	3,	-1,	-1,	59,	7,	-1,	-1,	-1,	46,	-1,	-1,	-1,	-1,	-1,	51,	63,	-1,	-1,	25,	9,	38,	-1,	1,	-1,	-1,	-1,	41,	31,	-1,	40,	-1,	37,	-1,	48,	-1,	20,	-1,	42,	60,	-1,	34,	50,	47,	54,	27,	14,	17,	-1,	53,	-1,	10,	-1,	45,	39,	-1,	-1,	5,	-1|
55,	-1,	7,	37,	-1,	-1,	40,	22,	54,	-1,	-1,	-1,	50,	42,	-1,	-1,	44,	-1,	13,	46,	-1,	-1,	8,	-1,	-1,	36,	-1,	-1,	20,	-1,	-1,	11,	53,	33,	39,	63,	-1,	34,	60,	58,	4,	49,	25,	62,	43,	-1,	-1,	3,	-1,	23,	24,	28,	-1,	-1,	-1,	-1,	12,	15,	38,	-1,	-1,	-1,	-1,	29|
-1,	-1,	-1,	54,	9,	-1,	28,	5,	-1,	-1,	38,	56,	39,	-1,	24,	55,	-1,	41,	-1,	-1,	64,	-1,	-1,	-1,	34,	-1,	-1,	-1,	-1,	60,	2,	-1,	4,	32,	21,	-1,	15,	43,	-1,	-1,	-1,	51,	46,	23,	-1,	11,	-1,	-1,	12,	-1,	45,	63,	26,	-1,	62,	52,	58,	-1,	-1,	19,	-1,	-1,	48,	6|
-1,	1,	-1,	62,	-1,	-1,	-1,	-1,	-1,	-1,	-1,	-1,	-1,	20,	-1,	30,	-1,	-1,	16,	-1,	-1,	61,	-1,	39,	-1,	24,	-1,	-1,	3,	-1,	27,	-1,	52,	11,	23,	12,	-1,	-1,	64,	-1,	-1,	5,	-1,	40,	-1,	-1,	63,	55,	15,	60,	-1,	-1,	-1,	-1,	18,	46,	50,	-1,	-1,	-1,	-1,	36,	49,	-1|
32,	-1,	-1,	-1,	-1,	14,	-1,	2,	44,	53,	62,	34,	48,	47,	-1,	-1,	6,	58,	43,	-1,	12,	-1,	21,	57,	16,	17,	-1,	35,	-1,	63,	15,	-1,	42,	54,	-1,	-1,	-1,	20,	56,	-1,	36,	-1,	-1,	-1,	-1,	9,	-1,	-1,	-1,	31,	40,	25,	-1,	7,	-1,	11,	18,	30,	13,	-1,	-1,	-1,	23,	24|
-1,	-1,	-1,	21,	-1,	28,	-1,	-1,	-1,	-1,	53,	58,	-1,	36,	60,	34,	-1,	54,	44,	-1,	15,	2,	46,	-1,	6,	-1,	-1,	-1,	10,	33,	-1,	64,	-1,	-1,	-1,	43,	14,	13,	-1,	9,	51,	-1,	7,	-1,	23,	-1,	47,	-1,	3,	-1,	-1,	-1,	-1,	-1,	63,	17,	49,	-1,	27,	4,	42,	29,	-1,	-1|
63,	-1,	55,	-1,	-1,	-1,	35,	49,	51,	1,	-1,	-1,	57,	27,	-1,	-1,	58,	26,	-1,	-1,	-1,	-1,	3,	17,	-1,	50,	-1,	-1,	-1,	-1,	-1,	30,	61,	-1,	-1,	48,	-1,	54,	-1,	12,	-1,	-1,	36,	9,	39,	-1,	37,	-1,	-1,	32,	-1,	10,	-1,	60,	-1,	-1,	-1,	-1,	18,	33,	-1,	64,	46,	-1|
56,	-1,	-1,	47,	42,	-1,	9,	-1,	64,	14,	19,	-1,	-1,	30,	-1,	-1,	45,	-1,	-1,	-1,	-1,	-1,	63,	61,	27,	48,	57,	3,	34,	2,	54,	-1,	36,	-1,	-1,	-1,	8,	-1,	44,	7,	13,	-1,	12,	-1,	22,	33,	17,	21,	26,	5,	-1,	15,	-1,	-1,	31,	-1,	39,	-1,	37,	53,	-1,	35,	-1,	-1|
-1,	44,	-1,	-1,	14,	32,	-1,	-1,	-1,	48,	22,	-1,	23,	46,	-1,	47,	9,	-1,	59,	-1,	19,	-1,	-1,	24,	-1,	-1,	4,	37,	7,	-1,	28,	56,	-1,	-1,	49,	-1,	63,	-1,	-1,	-1,	-1,	-1,	38,	-1,	40,	8,	30,	-1,	-1,	-1,	12,	-1,	29,	-1,	11,	33,	60,	-1,	50,	-1,	-1,	10,	-1,	-1|
3,	18,	40,	17,	-1,	-1,	24,	37,	-1,	4,	41,	38,	44,	7,	9,	-1,	47,	48,	27,	-1,	60,	6,	-1,	-1,	-1,	-1,	25,	32,	-1,	-1,	19,	-1,	26,	34,	2,	-1,	-1,	57,	-1,	33,	49,	35,	-1,	55,	-1,	29,	-1,	10,	-1,	-1,	-1,	59,	-1,	-1,	-1,	30,	-1,	36,	-1,	63,	43,	28,	-1,	-1|
41,	-1,	22,	29,	64,	57,	-1,	20,	59,	-1,	3,	62,	-1,	12,	8,	63,	16,	43,	-1,	-1,	39,	34,	-1,	1,	-1,	40,	-1,	-1,	-1,	17,	21,	46,	-1,	45,	-1,	-1,	-1,	18,	52,	51,	-1,	-1,	-1,	44,	-1,	32,	-1,	-1,	50,	-1,	13,	61,	9,	-1,	38,	-1,	14,	-1,	-1,	-1,	26,	7,	6,	47|
-1,	2,	27,	-1,	-1,	13,	-1,	-1,	-1,	-1,	33,	15,	-1,	10,	-1,	6,	31,	14,	55,	-1,	-1,	4,	-1,	-1,	43,	35,	-1,	12,	38,	-1,	22,	59,	47,	-1,	-1,	41,	-1,	-1,	21,	40,	63,	18,	50,	52,	-1,	-1,	64,	-1,	34,	-1,	-1,	-1,	45,	58,	46,	36,	9,	23,	57,	32,	1,	56,	54,	-1|
60,	34,	61,	-1,	-1,	33,	-1,	10,	43,	-1,	40,	37,	26,	-1,	-1,	52,	-1,	-1,	-1,	-1,	57,	30,	-1,	-1,	49,	-1,	45,	41,	-1,	-1,	-1,	63,	-1,	-1,	-1,	-1,	59,	-1,	29,	-1,	-1,	14,	20,	-1,	56,	-1,	54,	58,	-1,	44,	-1,	-1,	-1,	-1,	27,	23,	24,	-1,	-1,	-1,	25,	15,	-1,	-1|];
