benchmarks_LEQ/INST_64x64/50/inst64x64_50_65.txt
8
1
-1	11	-1	-1	-1	-1	12	64	-1	-1	-1	9	24	8	51	-1	41	10	21	58	-1	-1	45	34	59	-1	33	-1	6	56	32	1	54	-1	-1	-1	-1	29	-1	31	-1	-1	49	47	-1	-1	-1	25	-1	35	-1	-1	3	-1	-1	-1	17	14	43	-1	-1	-1	60	50
-1	-1	-1	-1	-1	38	2	-1	-1	-1	-1	-1	-1	-1	40	-1	-1	51	31	11	35	-1	13	63	-1	23	-1	-1	-1	27	45	48	18	-1	58	4	1	-1	24	-1	28	-1	-1	-1	50	-1	43	29	-1	-1	61	19	-1	39	-1	-1	42	6	-1	-1	-1	30	-1	32
-1	-1	-1	-1	28	-1	22	8	-1	-1	48	-1	32	55	-1	-1	-1	-1	61	-1	49	-1	1	-1	9	-1	-1	19	-1	-1	-1	16	64	-1	53	3	30	-1	-1	-1	6	-1	-1	-1	41	34	-1	60	-1	-1	54	20	-1	-1	36	-1	-1	-1	7	-1	51	11	-1	31
59	-1	34	35	-1	-1	-1	-1	-1	-1	-1	50	-1	60	-1	58	-1	56	48	40	17	38	-1	55	-1	-1	-1	-1	-1	-1	-1	22	-1	9	33	-1	-1	11	23	8	-1	-1	10	-1	-1	24	31	-1	21	-1	6	4	51	-1	47	-1	44	-1	15	-1	-1	-1	28	-1
-1	-1	-1	-1	16	-1	-1	-1	-1	45	61	-1	-1	-1	-1	37	-1	50	-1	-1	28	64	-1	-1	-1	57	-1	-1	-1	29	49	-1	19	-1	52	7	-1	41	-1	43	8	-1	11	-1	14	-1	18	1	33	40	-1	32	-1	-1	-1	15	53	59	2	-1	-1	55	-1	-1
17	46	57	-1	6	1	32	58	-1	10	4	49	-1	-1	-1	-1	-1	-1	-1	19	-1	-1	29	-1	21	42	-1	-1	-1	7	13	44	45	62	15	36	12	-1	55	20	61	-1	48	-1	51	-1	9	35	-1	-1	5	-1	43	50	8	-1	-1	-1	-1	-1	16	-1	33	22
33	-1	49	-1	19	51	-1	-1	56	-1	47	-1	-1	-1	-1	-1	-1	-1	24	6	-1	9	60	59	-1	64	-1	-1	-1	11	-1	-1	-1	10	-1	14	46	-1	16	28	32	-1	4	-1	-1	-1	39	-1	37	27	-1	-1	-1	55	-1	58	-1	-1	-1	-1	20	-1	13	35
54	63	-1	-1	5	-1	47	41	-1	30	29	-1	52	-1	33	62	-1	-1	-1	-1	-1	46	44	32	55	-1	31	-1	-1	10	60	36	50	-1	-1	2	57	6	27	-1	-1	59	-1	-1	-1	-1	-1	45	7	34	-1	16	-1	26	-1	9	1	-1	48	-1	12	8	-1	-1
-1	10	32	64	-1	-1	26	-1	-1	-1	-1	4	-1	19	-1	18	-1	-1	5	-1	30	58	-1	-1	8	25	-1	20	-1	46	9	34	35	-1	22	-1	-1	1	14	27	-1	6	-1	-1	61	51	29	2	-1	33	63	-1	57	-1	-1	39	-1	52	16	-1	15	37	-1	-1
37	-1	-1	-1	8	42	-1	9	-1	23	-1	-1	5	-1	30	-1	-1	-1	-1	-1	45	26	38	14	61	56	-1	-1	47	-1	11	55	-1	-1	6	-1	58	24	-1	10	-1	-1	63	13	-1	-1	-1	4	60	-1	49	-1	31	41	43	-1	59	20	36	46	-1	57	-1	21
-1	-1	20	44	55	52	-1	62	-1	56	32	53	-1	-1	-1	16	-1	8	-1	-1	42	-1	31	27	23	-1	-1	18	41	-1	24	-1	30	57	-1	-1	-1	7	3	-1	43	-1	-1	-1	-1	-1	-1	40	22	61	10	11	13	15	-1	34	5	-1	29	60	58	-1	-1	-1
-1	7	-1	56	11	-1	33	16	-1	-1	-1	-1	-1	54	62	-1	46	-1	41	-1	-1	-1	18	43	-1	44	-1	-1	49	40	1	19	12	61	-1	17	34	55	-1	-1	25	28	39	20	15	36	-1	-1	-1	-1	-1	-1	-1	5	2	-1	47	32	23	-1	13	24	-1	48
18	-1	4	3	21	-1	-1	-1	45	-1	13	46	17	-1	2	59	-1	-1	-1	-1	-1	51	50	6	-1	-1	-1	-1	33	53	57	-1	-1	52	56	-1	-1	16	48	-1	-1	-1	-1	-1	-1	5	-1	-1	62	38	-1	30	-1	24	9	-1	-1	-1	-1	-1	11	-1	-1	-1
15	28	-1	-1	27	-1	-1	-1	-1	-1	10	20	9	39	47	-1	-1	-1	-1	53	40	-1	49	29	7	31	-1	-1	4	32	12	-1	5	-1	-1	18	-1	-1	-1	38	11	8	16	37	44	56	57	-1	17	55	-1	-1	19	42	-1	6	30	25	-1	-1	3	-1	-1	51
-1	-1	-1	22	59	39	-1	47	58	-1	36	-1	-1	-1	57	41	34	11	-1	-1	-1	-1	37	25	38	21	29	45	60	-1	51	-1	-1	42	63	26	-1	19	-1	-1	-1	62	30	-1	-1	1	-1	9	-1	-1	-1	52	-1	64	32	4	28	-1	12	-1	-1	-1	-1	-1
6	60	1	-1	-1	49	-1	36	21	-1	-1	55	61	51	-1	-1	-1	-1	-1	3	-1	52	-1	15	-1	43	-1	-1	30	-1	62	-1	20	-1	31	28	32	40	-1	46	19	-1	24	18	-1	64	59	-1	-1	25	-1	-1	-1	47	-1	-1	-1	39	22	9	34	63	-1	7
-1	-1	39	-1	36	48	-1	11	10	58	-1	-1	-1	-1	64	-1	-1	23	-1	51	-1	-1	-1	-1	22	30	-1	-1	37	43	34	-1	62	-1	-1	-1	-1	-1	6	-1	16	-1	17	32	-1	-1	-1	49	31	-1	-1	35	-1	-1	-1	-1	19	1	-1	-1	53	12	29	-1
-1	49	15	7	10	24	23	-1	-1	-1	35	-1	-1	-1	-1	9	-1	62	38	33	-1	44	-1	-1	-1	27	-1	-1	-1	-1	63	18	59	-1	41	52	29	39	58	-1	42	-1	-1	61	8	37	-1	13	6	-1	-1	-1	-1	-1	-1	40	26	51	60	-1	2	-1	-1	-1
-1	52	6	-1	-1	22	-1	-1	23	50	26	-1	-1	5	-1	21	-1	-1	18	2	-1	56	17	37	-1	60	24	-1	-1	64	-1	14	-1	-1	-1	-1	11	38	51	-1	-1	36	-1	-1	20	58	25	7	10	-1	-1	-1	-1	-1	-1	-1	35	-1	4	-1	-1	-1	32	-1
16	-1	51	-1	-1	-1	-1	-1	-1	-1	42	52	-1	-1	-1	54	-1	47	-1	48	-1	36	11	-1	-1	13	-1	29	9	44	-1	23	25	-1	-1	22	17	-1	50	30	-1	10	-1	6	-1	-1	35	39	-1	49	-1	-1	-1	-1	14	7	-1	5	-1	55	-1	41	-1	-1
12	-1	58	5	-1	-1	21	-1	20	-1	24	-1	-1	17	15	-1	29	64	-1	41	32	10	43	-1	19	-1	26	49	-1	55	25	7	-1	-1	-1	53	37	46	-1	-1	34	-1	-1	-1	-1	27	4	62	18	-1	44	-1	63	-1	-1	-1	-1	3	59	48	40	39	16	14
-1	-1	-1	-1	3	60	-1	25	55	7	-1	-1	41	-1	-1	1	35	6	-1	-1	-1	21	-1	58	48	5	56	59	57	-1	50	33	-1	-1	-1	64	40	-1	-1	32	-1	-1	29	-1	-1	53	51	54	-1	30	39	-1	4	-1	-1	-1	62	-1	-1	-1	-1	52	15	11
1	-1	-1	4	41	-1	-1	14	-1	12	49	-1	-1	2	-1	19	27	-1	30	-1	-1	-1	15	-1	-1	51	32	-1	-1	-1	-1	10	-1	23	54	-1	-1	3	18	26	50	-1	21	64	-1	22	-1	-1	36	43	11	-1	28	9	56	-1	6	-1	25	-1	45	-1	8	38
-1	53	-1	-1	-1	2	50	-1	4	-1	43	-1	-1	13	-1	38	-1	55	-1	59	63	-1	5	-1	3	-1	21	6	28	-1	-1	12	-1	48	-1	-1	35	-1	19	-1	1	-1	9	11	-1	-1	14	31	25	15	-1	58	61	-1	-1	62	-1	46	-1	24	-1	22	-1	-1
-1	64	41	48	35	55	-1	12	30	40	23	-1	-1	-1	45	33	1	44	-1	60	-1	-1	6	19	-1	-1	54	13	26	-1	-1	53	-1	49	-1	-1	-1	63	39	-1	-1	22	-1	-1	18	-1	-1	-1	-1	4	-1	-1	5	-1	-1	8	32	-1	-1	-1	-1	-1	42	-1
-1	5	38	52	24	43	56	-1	41	-1	-1	6	-1	28	-1	39	-1	16	7	4	33	42	-1	9	44	-1	46	30	64	-1	-1	40	-1	37	19	10	47	32	-1	34	-1	-1	-1	60	62	49	-1	-1	-1	59	3	-1	53	-1	-1	18	-1	13	-1	-1	36	-1	17	1
47	-1	-1	-1	44	-1	36	-1	19	18	-1	-1	-1	-1	-1	-1	54	-1	32	12	56	-1	25	13	33	49	1	23	21	-1	52	-1	48	-1	50	-1	-1	-1	-1	-1	35	-1	8	-1	29	38	-1	-1	2	-1	-1	40	27	46	51	31	-1	16	30	-1	63	-1	41	-1
58	-1	14	-1	-1	-1	-1	-1	-1	-1	-1	35	47	-1	-1	32	-1	40	11	-1	-1	39	-1	41	-1	22	18	-1	29	-1	42	-1	33	-1	-1	55	54	31	-1	24	30	-1	52	-1	-1	-1	-1	36	57	16	7	49	1	-1	34	-1	46	-1	28	21	60	50	62	-1
31	42	30	32	-1	-1	-1	-1	-1	-1	-1	8	-1	22	37	-1	49	-1	23	18	62	29	-1	10	-1	11	55	5	-1	-1	38	17	-1	15	-1	20	44	-1	-1	52	58	41	-1	-1	48	-1	-1	-1	-1	39	43	-1	-1	61	-1	50	-1	27	56	14	6	53	57	-1
57	9	18	-1	60	-1	8	53	-1	27	-1	-1	15	-1	26	51	22	61	46	-1	-1	5	48	-1	63	-1	6	16	62	4	37	-1	13	58	-1	21	45	2	28	-1	-1	33	47	54	-1	14	32	-1	-1	-1	-1	-1	-1	38	10	-1	-1	-1	39	-1	24	25	11	-1
49	16	-1	23	-1	-1	-1	28	-1	42	-1	-1	1	56	10	-1	-1	-1	50	35	26	55	52	-1	24	32	-1	39	58	-1	-1	60	-1	59	-1	-1	27	4	38	-1	46	37	34	-1	21	31	61	64	11	22	47	-1	-1	6	-1	-1	-1	9	19	18	-1	-1	3	33
-1	6	33	15	-1	-1	-1	29	48	-1	59	13	-1	52	-1	-1	2	-1	58	14	21	-1	57	64	-1	19	-1	-1	-1	-1	10	9	3	8	-1	-1	43	-1	-1	-1	-1	24	42	-1	16	55	-1	56	23	-1	-1	37	36	-1	-1	-1	-1	34	49	-1	-1	61	-1	-1
35	-1	12	51	-1	5	-1	15	-1	-1	31	63	-1	6	36	49	-1	27	-1	-1	-1	-1	41	30	-1	-1	-1	-1	19	13	-1	25	-1	-1	37	-1	48	-1	46	-1	-1	-1	64	-1	-1	59	58	-1	-1	28	-1	-1	-1	-1	-1	60	20	-1	24	29	-1	21	-1	-1
-1	-1	-1	45	22	18	49	17	-1	-1	39	-1	58	9	53	5	21	-1	29	-1	14	-1	-1	-1	-1	-1	-1	-1	-1	-1	56	-1	-1	3	1	-1	26	-1	-1	57	-1	27	-1	-1	11	-1	24	8	-1	6	-1	-1	38	-1	48	-1	-1	19	55	-1	-1	47	30	46
-1	32	-1	-1	1	59	14	-1	57	26	-1	-1	46	25	20	13	-1	15	35	-1	53	-1	-1	4	18	34	41	64	8	37	33	-1	28	-1	-1	-1	-1	-1	-1	-1	-1	-1	43	-1	-1	19	-1	-1	29	-1	31	2	44	11	7	45	23	56	-1	-1	48	-1	-1	-1
-1	-1	-1	-1	43	-1	34	-1	62	-1	-1	-1	12	-1	-1	14	-1	-1	-1	54	-1	-1	-1	-1	-1	1	22	27	-1	-1	-1	-1	21	-1	25	13	-1	8	-1	18	29	-1	-1	48	-1	-1	56	-1	20	-1	53	-1	42	36	35	-1	-1	-1	10	11	-1	-1	59	28
-1	38	-1	9	-1	64	-1	56	52	-1	50	19	18	48	29	-1	57	-1	-1	39	31	-1	47	44	-1	-1	60	-1	5	-1	-1	24	63	-1	-1	-1	23	15	-1	6	10	-1	-1	-1	-1	-1	-1	14	-1	-1	26	22	-1	4	59	32	-1	-1	40	-1	37	16	-1	-1
27	-1	28	24	-1	-1	-1	46	15	-1	30	-1	4	61	44	7	37	17	10	-1	-1	23	-1	26	-1	29	53	11	-1	-1	-1	42	34	-1	-1	-1	-1	59	-1	-1	60	9	35	-1	-1	50	36	47	-1	-1	52	-1	-1	19	-1	14	25	41	6	38	-1	-1	64	-1
48	-1	23	-1	25	58	19	-1	42	-1	37	-1	-1	45	-1	11	-1	-1	51	-1	-1	60	32	56	57	-1	-1	-1	-1	-1	26	-1	29	35	-1	-1	55	52	2	-1	12	54	1	-1	-1	20	-1	-1	-1	46	-1	-1	30	3	-1	-1	-1	18	-1	8	14	44	-1	-1
-1	36	-1	50	26	10	30	55	27	24	60	59	-1	-1	-1	56	-1	33	6	42	-1	18	62	-1	54	-1	52	46	2	48	44	38	31	7	-1	19	-1	-1	-1	22	37	45	-1	-1	-1	-1	28	-1	-1	-1	-1	39	25	34	-1	-1	-1	-1	-1	-1	32	9	1	5
43	-1	-1	-1	-1	9	-1	40	-1	-1	-1	44	45	26	-1	50	-1	52	-1	62	55	11	34	48	-1	-1	-1	42	-1	15	64	-1	57	-1	-1	-1	16	60	-1	2	39	58	-1	-1	31	28	20	-1	-1	8	-1	-1	32	-1	-1	-1	-1	21	-1	-1	7	23	36	-1
-1	-1	60	-1	45	-1	17	51	9	-1	1	39	42	-1	38	48	3	18	-1	-1	-1	-1	-1	35	-1	-1	50	-1	-1	-1	-1	4	43	-1	61	32	-1	-1	-1	13	-1	25	-1	-1	36	-1	49	5	58	-1	-1	-1	55	-1	-1	53	64	-1	46	-1	-1	-1	2	34
5	-1	-1	49	2	11	-1	-1	-1	15	52	12	-1	4	16	-1	43	-1	-1	61	36	31	-1	21	-1	41	-1	9	-1	58	-1	35	6	18	14	59	-1	-1	-1	-1	-1	50	23	-1	24	30	-1	53	28	-1	42	51	22	-1	29	27	-1	-1	-1	-1	-1	19	-1	-1
-1	48	-1	-1	-1	-1	44	-1	32	-1	-1	-1	-1	-1	-1	-1	-1	-1	1	8	13	-1	7	54	-1	-1	27	60	-1	-1	43	-1	40	-1	-1	62	-1	5	17	19	33	-1	-1	-1	9	-1	-1	-1	-1	3	-1	-1	-1	35	39	26	29	-1	63	6	30	-1	18	15
20	59	13	12	-1	36	-1	35	60	-1	6	-1	25	23	-1	17	5	22	-1	44	41	15	-1	38	-1	2	48	34	46	30	55	-1	58	-1	3	33	-1	56	10	-1	-1	43	-1	-1	-1	62	-1	-1	1	-1	-1	64	7	31	52	47	-1	4	-1	27	-1	32	24	16
-1	-1	31	27	18	-1	-1	-1	-1	-1	-1	51	-1	11	-1	29	-1	46	-1	-1	23	-1	20	-1	37	26	-1	62	13	49	16	5	-1	12	-1	9	7	35	-1	63	15	-1	-1	-1	-1	-1	-1	41	-1	-1	-1	-1	-1	-1	-1	-1	-1	33	17	52	22	-1	39	-1
-1	54	19	39	52	-1	55	-1	24	-1	-1	-1	35	41	-1	-1	-1	29	17	-1	-1	14	9	-1	53	-1	-1	57	-1	-1	-1	-1	-1	-1	-1	25	-1	-1	30	-1	-1	-1	-1	-1	37	42	22	12	-1	50	-1	-1	-1	13	16	48	51	-1	5	49	-1	-1	47	-1
14	15	24	-1	-1	23	-1	-1	-1	31	5	-1	62	64	-1	36	51	60	-1	-1	58	16	-1	2	-1	-1	19	21	52	-1	59	-1	55	-1	48	-1	53	-1	-1	47	38	-1	-1	3	10	-1	13	27	-1	-1	-1	43	34	12	6	-1	-1	-1	-1	26	50	-1	45	-1
-1	23	56	-1	20	-1	-1	48	-1	-1	27	-1	-1	18	-1	-1	60	-1	4	-1	50	54	40	11	5	-1	42	51	-1	-1	53	37	44	-1	-1	-1	6	-1	47	-1	64	21	26	-1	57	41	-1	-1	-1	58	-1	8	10	22	3	-1	-1	-1	52	34	55	14	-1	9
-1	-1	-1	-1	34	-1	-1	52	-1	-1	9	-1	19	-1	-1	-1	-1	-1	-1	-1	-1	48	30	23	-1	62	14	54	-1	21	46	-1	24	-1	-1	-1	-1	28	-1	3	56	53	-1	59	-1	39	-1	-1	51	-1	29	-1	6	1	33	-1	16	-1	-1	-1	-1	-1	20	-1
4	24	43	11	-1	-1	18	13	-1	60	-1	-1	-1	-1	-1	61	-1	-1	-1	29	-1	-1	-1	-1	58	-1	-1	-1	23	-1	48	39	1	26	-1	46	10	-1	22	-1	47	-1	37	-1	7	-1	16	-1	9	-1	59	34	64	30	-1	-1	-1	-1	32	-1	-1	3	-1	-1
30	29	-1	16	-1	19	3	-1	2	-1	7	26	-1	21	46	-1	28	-1	15	32	-1	-1	35	49	-1	-1	-1	56	-1	52	-1	-1	-1	31	-1	-1	-1	37	-1	48	22	-1	18	42	-1	-1	-1	50	47	54	27	14	17	44	53	-1	10	11	45	39	4	-1	-1	-1
55	27	-1	-1	-1	26	40	-1	54	-1	-1	-1	-1	-1	1	-1	-1	9	-1	-1	-1	-1	-1	-1	-1	-1	-1	-1	-1	-1	18	-1	-1	-1	-1	-1	-1	-1	60	-1	-1	-1	25	-1	-1	2	-1	3	-1	23	24	28	48	56	-1	16	-1	-1	38	-1	21	51	31	29
10	-1	44	-1	9	-1	-1	-1	49	16	38	-1	39	-1	-1	-1	18	41	3	17	-1	25	-1	-1	34	8	40	33	61	-1	2	-1	-1	32	21	-1	15	-1	-1	-1	-1	51	-1	23	-1	11	-1	-1	12	36	45	-1	-1	-1	-1	52	58	-1	-1	-1	-1	27	48	6
38	1	21	62	-1	8	-1	-1	-1	22	58	32	10	20	6	30	56	-1	-1	34	-1	61	-1	-1	-1	-1	-1	4	-1	59	-1	-1	-1	11	23	12	-1	9	64	25	31	5	-1	40	-1	48	63	55	15	60	2	-1	41	37	18	-1	-1	-1	-1	28	44	36	49	53
-1	41	-1	59	51	-1	60	2	44	-1	-1	-1	48	47	52	3	-1	-1	43	27	-1	-1	-1	57	-1	17	-1	-1	-1	-1	15	-1	-1	54	5	-1	-1	-1	-1	49	36	-1	61	-1	19	-1	-1	-1	4	-1	-1	25	39	-1	55	-1	-1	30	13	-1	33	-1	-1	-1
52	-1	-1	-1	12	-1	-1	31	50	-1	-1	58	-1	36	-1	-1	38	-1	44	22	-1	2	46	18	-1	-1	-1	26	-1	-1	8	-1	-1	-1	62	43	14	-1	-1	-1	-1	1	7	-1	23	-1	47	-1	3	48	-1	-1	-1	40	63	-1	49	-1	-1	-1	-1	-1	-1	-1
-1	-1	55	19	-1	-1	35	-1	51	-1	-1	21	57	27	13	31	-1	-1	40	5	11	41	-1	-1	-1	-1	62	-1	-1	16	29	30	-1	24	20	48	28	-1	-1	-1	-1	-1	36	-1	-1	45	37	-1	42	-1	-1	10	47	60	-1	-1	-1	2	18	33	-1	-1	46	-1
-1	50	-1	-1	42	25	-1	-1	64	-1	19	-1	16	-1	-1	24	45	20	-1	23	-1	32	63	61	-1	-1	57	3	-1	-1	54	-1	-1	-1	-1	6	8	10	44	7	13	60	12	-1	-1	33	-1	-1	26	-1	1	15	-1	-1	31	51	-1	-1	37	-1	41	-1	58	40
-1	-1	-1	-1	14	-1	-1	-1	-1	48	-1	2	23	46	42	47	-1	25	59	21	-1	-1	-1	-1	-1	20	4	37	-1	-1	-1	56	-1	39	-1	-1	63	-1	53	-1	3	-1	-1	15	40	-1	-1	-1	-1	-1	12	-1	29	-1	-1	-1	-1	-1	50	-1	-1	-1	34	13
-1	-1	40	17	-1	46	24	-1	-1	-1	41	-1	-1	7	-1	-1	47	-1	27	-1	60	6	56	-1	51	58	-1	32	15	1	-1	13	26	-1	-1	23	22	-1	5	33	49	35	-1	-1	-1	29	11	-1	39	-1	16	-1	54	-1	-1	-1	-1	-1	-1	-1	43	-1	12	-1
-1	-1	22	29	-1	57	15	20	59	49	-1	-1	54	12	8	-1	16	-1	33	10	39	34	36	-1	-1	40	23	24	55	17	21	-1	56	-1	4	-1	42	-1	-1	51	5	-1	-1	-1	-1	32	2	-1	50	-1	13	61	9	-1	-1	-1	14	-1	11	-1	-1	-1	6	47
-1	2	-1	8	48	13	16	26	29	5	33	-1	20	10	-1	-1	-1	14	-1	-1	-1	4	53	-1	-1	35	-1	12	-1	-1	22	59	-1	17	60	41	-1	-1	-1	-1	63	18	50	-1	25	61	64	24	34	62	-1	-1	-1	58	46	36	-1	23	57	-1	-1	-1	-1	44
60	34	-1	-1	-1	-1	39	10	-1	28	40	37	-1	-1	35	-1	7	-1	64	13	-1	30	12	-1	-1	-1	-1	-1	-1	9	-1	63	-1	19	-1	1	59	50	-1	55	62	-1	20	4	56	46	-1	58	-1	44	-1	6	-1	-1	27	23	-1	48	-1	51	25	-1	-1	17
64 
11 22 4 56
10 4 46 42
61 1 5 2
20 25 53 41
52 63 5 34
21 13 60 8
1 46 62 62
17 32 61 54
28 10 19 1
15 21 25 7
6 15 33 33
22 35 53 57
19 60 31 7
59 10 16 51
27 47 3 16
35 42 56 25
37 31 30 11
60 30 3 29
55 18 10 19
15 19 47 10
2 8 51 56
2 9 56 29
47 31 16 48
15 12 36 50
17 21 31 30
56 32 60 42
41 34 35 35
32 27 56 48
13 14 56 42
48 4 1 49
30 20 63 17
10 42 46 45
20 38 38 37
20 15 43 44
5 25 29 29
51 19 1 60
24 51 61 8
21 44 5 28
48 36 19 17
32 41 29 39
52 33 6 59
35 59 44 3
46 62 13 10
22 11 19 8
7 2 3 49
53 20 36 24
40 38 64 26
10 7 5 54
40 44 50 32
16 28 36 32
37 63 10 36
10 46 2 49
57 11 51 17
41 39 45 12
27 64 44 15
58 51 42 29
64 21 46 10
47 64 5 32
9 18 59 3
54 30 47 51
40 56 27 12
19 7 56 11
20 63 45 45
20 64 44 42
